p tw 40 98
0 1
0 16
0 22
0 3
0 20
1 23
1 29
1 17
1 34
1 33
1 18
1 30
2 3
2 15
2 24
2 5
2 33
3 12
3 32
3 38
3 19
4 5
4 30
4 28
4 25
4 12
4 36
5 27
5 36
5 13
5 28
5 15
6 7
6 36
6 26
7 8
7 17
7 18
7 39
8 11
8 28
8 30
9 10
9 27
9 16
9 34
10 26
10 22
10 23
10 37
11 19
11 20
11 21
11 29
11 26
11 24
12 18
12 20
12 25
12 33
12 38
12 39
13 14
13 26
14 20
14 21
15 21
15 20
15 26
15 30
15 34
15 23
15 17
16 17
16 25
16 31
16 27
17 35
17 30
18 22
18 26
18 32
18 23
19 21
19 31
19 27
20 22
24 32
25 36
25 30
26 27
26 28
27 30
27 33
28 37
29 30
32 33
33 39
